
m = 12;

n = 12;

Amin = 57;

Amax = 72;

B = 2736;

lambda = 20.00;

c = 
[[8,7,3,5,8,6,3,4,6,4,10,10],
[4,5,3,3,2,2,3,6,4,7,8,9],
[10,10,3,6,4,5,4,10,10,5,2,5],
[7,3,8,3,3,5,9,5,8,2,5,6],
[9,6,8,3,9,6,8,9,3,8,4,5],
[2,6,3,9,7,3,3,4,3,7,3,2],
[10,8,4,6,8,7,10,5,2,8,6,9],
[10,10,7,2,7,7,4,6,9,5,4,6],
[4,3,6,3,9,5,4,6,2,6,10,7],
[2,10,10,2,5,3,7,4,2,4,2,8],
[7,4,10,6,5,10,8,8,2,3,7,7],
[4,9,3,4,2,2,9,2,8,6,9,9]];
